(declare-fun l1 () (List Int))
(declare-fun l2 () (List Int))
(declare-fun l3 () (List Int))
(declare-fun x () Int)
(declare-fun y () Int)
(assert (not (= l1 nil)))
(assert (not (= l2 nil)))
(push)
(assert (= (head l1) (head l2)))
(assert (= (tail l1) (tail l2)))
(push)
(assert (not (= l1 l2)))
(check-sat)
